 vasp.5.4.4.18Apr17-6-g9f103f2a35 (build Dec 31 2018 11:41:54) complex

 executed on             LinuxIFC date 2020.05.12  14:59:52

 INCAR:
 POTCAR:    PAW_PBE Ce 23Dec2003
 POTCAR:   PAW_PBE O 08Apr2002
 POTCAR:   PAW_PBE Ni 06Sep2000
 POTCAR:   PAW_PBE C 08Apr2002
 POTCAR:   PAW_PBE H 15Jun2001

 POTCAR:    PAW_PBE Ce 23Dec2003
   VRHFIN =Ce : [core=Kr 4d10]

   TITEL  = PAW_PBE Ce 23Dec2003
   POMASS =  140.115; ZVAL   =   12.000    mass and valenz
   ENMAX  =  273.042; ENMIN  =  204.781 eV
   QCUT   =   -4.480; QGAM   =    8.959    optimization parameters

   Description
     l     E      TYP  RCUT    TYP  RCUT
     0   .000     23  1.500
     0   .000     23  2.300
     0   .000     23  1.500
     0   .000     23  2.300
     1   .000     23  2.000
     1  3.000     23  2.300
     2   .000     23  2.500
     2  1.000     23  2.500
     3   .000     23  2.700
     3  -.430     23  2.700

 POTCAR:   PAW_PBE O 08Apr2002
   VRHFIN =O: s2p4

   TITEL  = PAW_PBE O 08Apr2002
   POMASS =   16.000; ZVAL   =    6.000    mass and valenz
   ENMAX  =  400.000; ENMIN  =  300.000 eV
   QCUT   =   -5.520; QGAM   =   11.041    optimization parameters

[...]

 POTCAR:   PAW_PBE Ni 06Sep2000
   VRHFIN =Ni:

   TITEL  = PAW_PBE Ni 06Sep2000
   POMASS =   58.690; ZVAL   =   10.000    mass and valenz
   ENMAX  =  269.533; ENMIN  =  202.150 eV
   QCUT   =   -4.451; QGAM   =    8.902    optimization parameters

[...]

 POTCAR:   PAW_PBE C 08Apr2002
   VRHFIN =C: s2p2

   TITEL  = PAW_PBE C 08Apr2002
   POMASS =   12.011; ZVAL   =    4.000    mass and valenz
   ENMAX  =  400.000; ENMIN  =  300.000 eV
   QCUT   =   -5.516; QGAM   =   11.032    optimization parameters

[...]

 POTCAR:   PAW_PBE H 15Jun2001
   VRHFIN =H: ultrasoft test

   TITEL  = PAW_PBE H 15Jun2001
   POMASS =    1.000; ZVAL   =    1.000    mass and valenz
   ENMAX  =  250.000; ENMIN  =  200.000 eV
   QCUT   =   -5.749; QGAM   =   11.498    optimization parameters

   Description
     l     E      TYP  RCUT    TYP  RCUT
     0   .000     23  1.100
     0   .500     23  1.100
     1  -.300     23  1.100

 Optimization of the real space projectors (new method)

 maximal supplied QI-value         = 13.98
 optimisation between [QCUT,QGAM] = [ 11.33, 22.79] = [ 35.93,145.49] Ry
 Optimized for a Real-space Cutoff    1.56 Angstroem

   l    n(q)    QCUT    max X(q) W(low)/X(q) W(high)/X(q)  e(spline)
   0     11    11.327     5.428    0.42E-05    0.17E-05    0.56E-07
   0     11    11.327     9.711    0.21E-04    0.15E-04    0.24E-06
   1     10    11.327     2.967    0.14E-04    0.58E-05    0.59E-07
   1     10    11.327     4.227    0.16E-04    0.69E-05    0.16E-06
   2     10    11.327     3.946    0.59E-04    0.12E-03    0.16E-06
   2     10    11.327     8.796    0.23E-03    0.47E-03    0.56E-06
   3      9    11.327     6.110    0.50E-04    0.20E-04    0.99E-07
   3      9    11.327    17.360    0.14E-03    0.24E-03    0.44E-06
 Optimization of the real space projectors (new method)

[...]

   l    n(q)    QCUT    max X(q) W(low)/X(q) W(high)/X(q)  e(spline)
   0      7    11.310     5.582    0.48E-04    0.13E-03    0.16E-07
   0      7    11.310    69.432    0.20E-03    0.89E-03    0.19E-06
   1      6    11.310     2.780    0.41E-04    0.48E-04    0.42E-07
   1      6    11.310     4.549    0.12E-03    0.21E-03    0.99E-07
 Optimization of the real space projectors (new method)

 maximal supplied QI-value         = 34.20
 optimisation between [QCUT,QGAM] = [ 11.29, 22.57] = [ 35.68,142.71] Ry
 Optimized for a Real-space Cutoff    1.20 Angstroem

   l    n(q)    QCUT    max X(q) W(low)/X(q) W(high)/X(q)  e(spline)
   0      8    11.287     4.436    0.26E-04    0.52E-04    0.39E-07
   0      8    11.287    16.131    0.21E-03    0.48E-03    0.18E-06
   1      8    11.287     4.654    0.21E-03    0.11E-04    0.26E-06

  PAW_PBE Ce 23Dec2003                  :
 PAW_PBE O 08Apr2002                    :
 PAW_PBE Ni 06Sep2000                   :
 PAW_PBE C 08Apr2002                    :
 PAW_PBE H 15Jun2001                    :

 POSCAR: CeO2
  positions in direct lattice
  velocities in cartesian coordinates
 exchange correlation table for  LEXCH =       17
   RHO(1)=    0.500       N(1)  =     2000
   RHO(2)=  100.500       N(2)  =     4000

 VTST: version 3.2, (02/03/18)

 CHAIN: initializing optimizer

 OPT: Using VASP Quick-Min optimizer
 CHAIN: Read ICHAIN            1

 POSCAR: CeO2
  positions in direct lattice
  velocities in cartesian coordinates
 CHAIN: Running the Dynamical Matrix

 ion  position               nearest neighbor table
   1  0.000  0.994  0.030- 117 2.37 137 2.38  79 2.38  61 2.38  50 2.39 123 2.39  58 2.39
   2  0.333  0.158  0.170-  68 2.33  71 2.36  62 2.38  64 2.38  53 2.39  83 2.40  56 2.42  51 2.57

   3  0.157  0.322  0.311-  57 2.27  54 2.28  69 2.29  65 2.42  60 2.43  72 2.48 110 2.56
   4  0.999  0.243  0.031-  70 2.36  61 2.38  88 2.38  76 2.38  79 2.38  49 2.40  59 2.40
   5  0.331  0.410  0.167-  67 2.34 100 2.37  56 2.37 118 2.37  62 2.38  65 2.40 121 2.43  60 2.45

[...]

  45  0.926  0.582  0.311- 101 2.26 113 2.27 116 2.30  84 2.34 122 2.43 139 2.45
  46  0.751  0.493  0.029- 126 2.37  73 2.37 124 2.38 129 2.38  91 2.39  93 2.40 135 2.40
  47  0.584  0.660  0.167- 136 2.34 132 2.37 121 2.37 118 2.37 130 2.39 127 2.39 138 2.43 125 2.51

  48  0.923  0.830  0.311-  66 2.26 104 2.27 131 2.34 116 2.39 122 2.44 133 2.44
  49  0.167  0.327  0.995-  34 2.36   7 2.39   4 2.40
  50  0.001  0.994  0.135-  11 2.37  32 2.39   1 2.39  41 2.40
  51  0.342  0.166  0.282-  12 2.24   9 2.43   6 2.51   2 2.57
  52  0.417  0.327  0.994-  37 2.37  16 2.39   7 2.40
  53  0.250  0.993  0.132-  10 2.36  32 2.38   2 2.39  29 2.39
  54  0.084  0.162  0.277-   3 2.28  21 2.40  11 2.43   6 2.48
  55  0.417  0.078  0.995-  16 2.36  10 2.38  13 2.39
  56  0.248  0.243  0.134-   5 2.37  11 2.37   7 2.38   2 2.42
  57  0.086  0.409  0.278-   3 2.27  24 2.39   8 2.46  30 2.47
  58  0.167  0.078  0.995-   7 2.36  10 2.38   1 2.39
  59  0.998  0.242  0.135-  14 2.36   4 2.40  11 2.41   8 2.41
  60  0.327  0.408  0.274-  12 2.30  33 2.40   3 2.43   5 2.45
  61  0.083  0.160  0.066-   4 2.38   1 2.38   7 2.39  11 2.41
  62  0.416  0.327  0.201-  12 2.36   2 2.38   5 2.38  20 2.38
  63  0.241  0.975  0.351-  27 2.20   9 2.45   6 2.45
  64  0.333  0.161  0.066-   7 2.38   2 2.38  16 2.39  10 2.39
  65  0.164  0.326  0.205-  11 2.37   8 2.38   5 2.40   3 2.42
  66  0.990  0.984  0.349-  48 2.26  21 2.39   6 2.48
  67  0.333  0.410  0.065-   5 2.34   7 2.38  37 2.39  34 2.40
  68  0.171  0.078  0.206-   2 2.33  32 2.40  11 2.41   6 2.52
  69  0.999  0.243  0.348-   3 2.29  24 2.38  21 2.42
  70  0.082  0.409  0.066-   4 2.36  25 2.39   8 2.40  34 2.40
  71  0.415  0.075  0.203-   2 2.36  23 2.37  29 2.37   9 2.46
  72  0.245  0.250  0.365- 152 1.82   3 2.48
  73  0.667  0.327  0.994-  46 2.37  16 2.39  19 2.39
  74  0.501  0.994  0.133-  13 2.37  44 2.39  29 2.39  23 2.40
  75  0.837  0.162  0.272-  14 2.33  21 2.39  24 2.40  18 2.43
  76  0.916  0.326  0.994-   4 2.38  25 2.38  19 2.39
  77  0.750  0.994  0.135-  14 2.38  44 2.39  22 2.39  41 2.41
  78  0.581  0.164  0.281-  15 2.36   9 2.42  18 2.43  23 2.50
  79  0.916  0.077  0.995-  22 2.37   1 2.38   4 2.38
  80  0.750  0.244  0.135-  14 2.39  17 2.39  19 2.39  23 2.40
  81  0.581  0.415  0.280-  42 2.30  12 2.37  15 2.55  20 2.56
  82  0.667  0.078  0.995-  13 2.37  19 2.37  22 2.40
  83  0.501  0.243  0.134-  20 2.37  23 2.37  16 2.39   2 2.40
  84  0.836  0.419  0.275-  15 2.27  45 2.34  17 2.44  24 2.47
  85  0.584  0.161  0.066-  19 2.38  16 2.38  13 2.39  23 2.41
  86  0.917  0.330  0.207-  17 2.38   8 2.39  24 2.39  14 2.43
  87  0.756  0.003  0.346-  21 2.30  18 2.32  39 2.46
  88  0.833  0.160  0.066-   4 2.38  19 2.38  22 2.38  14 2.40
  89  0.667  0.329  0.205-  20 2.36  17 2.39  23 2.39  15 2.43
  90  0.504  0.985  0.348-  36 2.28  18 2.37   9 2.45
  91  0.833  0.410  0.065-  19 2.37  25 2.38  17 2.39  46 2.39
  92  0.665  0.078  0.208-  18 2.35  23 2.36  14 2.42  44 2.44
  93  0.584  0.409  0.065-  20 2.35  16 2.38  46 2.40  37 2.40
  94  0.917  0.074  0.207-  41 2.37  21 2.38  11 2.39  14 2.43
  95  0.761  0.243  0.347-  24 2.26  18 2.40  15 2.44
  96  0.167  0.828  0.993-  28 2.37  10 2.39  31 2.39
  97  1.000  0.494  0.133-  17 2.37  25 2.38  35 2.39   8 2.40
  98  0.335  0.663  0.274-  33 2.25  36 2.38  26 2.43  30 2.46
  99  0.417  0.827  0.993-  40 2.38  31 2.38  13 2.40
 100  0.248  0.492  0.132-   5 2.37  34 2.37   8 2.38  26 2.40
 101  0.083  0.662  0.275-  45 2.26  27 2.36  30 2.40  35 2.43
 102  0.416  0.576  0.994-  37 2.38  34 2.39  40 2.40
 103  0.249  0.743  0.132-  26 2.37  31 2.37  35 2.37  29 2.38
 104  0.079  0.905  0.274-  48 2.27  32 2.39  27 2.42   6 2.42
 105  0.166  0.575  0.994-  34 2.36  25 2.38  31 2.40
 106  0.002  0.744  0.132-  38 2.35  28 2.37  32 2.40  35 2.40
 107  0.333  0.904  0.271-   9 2.29  36 2.32  29 2.37  27 2.40
[...]
 132  0.584  0.661  0.064-  47 2.37  40 2.38  43 2.39  37 2.39
 133  0.917  0.825  0.204-  38 2.36  41 2.38  32 2.39  48 2.44
 134  0.739  0.498  0.365- 147 1.85  42 2.45
 135  0.835  0.661  0.064-  38 2.36  28 2.38  43 2.38  46 2.40
 136  0.666  0.823  0.204-  47 2.34  41 2.38  44 2.41  39 2.47
 137  0.834  0.911  0.066-   1 2.38  22 2.39  41 2.39  43 2.39
 138  0.671  0.577  0.202-  42 2.30  38 2.38  20 2.38  47 2.43
 139  0.919  0.580  0.205-  38 2.36  35 2.37  17 2.40  45 2.45
 140  0.584  0.911  0.065-  22 2.37  13 2.38  40 2.38  44 2.42
 141  0.749  0.733  0.361- 144 1.86  42 2.45
 142  0.498  0.745  0.360- 143 1.82  36 2.51  39 2.55
 143  0.517  0.675  0.417- 142 1.82 145 2.26 144 2.35 146 2.39 150 2.96  33 3.06
 144  0.660  0.660  0.421- 141 1.86 143 2.35 149 2.44 146 2.51 147 2.52  42 3.04
 145  0.457  0.594  0.502- 143 2.26 151 2.32 149 2.44 150 2.52 146 2.55
 146  0.490  0.509  0.417- 149 2.27 148 2.32 143 2.39 150 2.40 144 2.51 151 2.53 145 2.55 147 2.58
                           152 2.65
 147  0.646  0.491  0.418- 134 1.85 148 2.38 149 2.44 144 2.52 146 2.58  42 2.95
 148  0.489  0.372  0.458- 146 2.32 151 2.36 147 2.38 152 2.43 149 2.49
 149  0.581  0.542  0.500- 146 2.27 144 2.44 147 2.44 145 2.44 148 2.49 151 2.59
 150  0.326  0.486  0.429- 110 1.84 146 2.40 152 2.41 151 2.50 145 2.52 143 2.96
 151  0.391  0.423  0.508- 145 2.32 152 2.35 148 2.36 150 2.50 146 2.53 149 2.59
 152  0.326  0.332  0.422-  72 1.82 151 2.35 150 2.41 148 2.43 146 2.65  12 3.02
 153  0.517  0.887  0.502- 157 1.09 156 1.09 154 1.09 155 1.09
 154  0.438  0.834  0.498- 153 1.09
 155  0.556  0.849  0.516- 153 1.09
 156  0.529  0.944  0.534- 153 1.09
 157  0.545  0.921  0.460- 153 1.09

  Warning from LATTYP: Monoclinic adjustement (A1->A3, A2->A1, A3->A2)!
  Warning from LATTYP: Got some problem with cell dimensions!
  Tried to take original basis but could not verify dimensions!
  LATTYP: Found a simple monoclinic cell.
 ALAT       =    26.8920015643
 B/A-ratio  =     0.8524170487
 C/A-ratio  =     1.5275230572
 COS(beta)  =    -0.9819802295

  Lattice vectors:

 A1 = (   0.0002382649, -26.8920015632,   0.0000000000)
 A2 = (   0.0000000000,   0.0000000000, -22.9232006073)
 A3 = (   7.7627427499,  40.3380023448,   0.0000000000)

[...]
 DYNMAT: Loop at J=          93
 DYNMAT: Before DIRKAR
 DYNMAT: After DIRKAR
       5.886617539975290       5.503225975327707       1.500200723993706
 DYNMAT: Loop at J=          94
 DYNMAT: Before DIRKAR
 DYNMAT: After DIRKAR
      13.661491905702983       0.990782556154266       4.741753942821654
 DYNMAT: Loop at J=          95
 DYNMAT: Before DIRKAR
 DYNMAT: After DIRKAR
       9.921766892114189       3.268320717836544       7.955677961857577
 DYNMAT: Loop at J=          96
 DYNMAT: Before DIRKAR
 DYNMAT: After DIRKAR
      -3.835978540674749      11.130088139494095      22.756101947716335
 DYNMAT: Loop at J=          97
 DYNMAT: Before DIRKAR
 DYNMAT: After DIRKAR
      11.684286869929565       6.641892691068350       3.048635741900672
 DYNMAT: Loop at J=          98
 DYNMAT: Before DIRKAR
 DYNMAT: After DIRKAR
       0.047306691347449       8.918529119737505       6.278753039223496
 DYNMAT: Loop at J=          99
 DYNMAT: Before DIRKAR
 DYNMAT: After DIRKAR
       0.055033513029705      11.123173610673179      22.771172870863069
 DYNMAT: Loop at J=         100
 DYNMAT: Before DIRKAR
 DYNMAT: After DIRKAR
       0.030943258827512       6.620337827792016       3.035936200776732
 DYNMAT: Loop at J=         101
 DYNMAT: Before DIRKAR
 DYNMAT: After DIRKAR
      -3.850580239066483       8.898670159662068       6.301984185397307
 DYNMAT: Loop at J=         102
 DYNMAT: Before DIRKAR
 DYNMAT: After DIRKAR
       1.992717043300129       7.742326164836459      22.784403801579234
 DYNMAT: Loop at J=         103
 DYNMAT: Before DIRKAR
 DYNMAT: After DIRKAR
      -1.896400080367575       9.991831699562169       3.019080121895274
 DYNMAT: Loop at J=         104
 DYNMAT: Before DIRKAR
 DYNMAT: After DIRKAR
      -5.799729957546578      12.173467707802990       6.281105003934949
 DYNMAT: Loop at J=         105
 DYNMAT: Before DIRKAR
 DYNMAT: After DIRKAR
      -1.883791707087147       7.728728213301752      22.777463626946606
 DYNMAT: Loop at J=         106
 DYNMAT: Before DIRKAR
 DYNMAT: After DIRKAR
      -5.753380823788443      10.009688138857825       3.017220424782771
 DYNMAT: Loop at J=         107
 DYNMAT: Before DIRKAR
 DYNMAT: After DIRKAR
      -1.855693968900503      12.160922279009171       6.216038838323040
 DYNMAT: Loop at J=         108
 DYNMAT: Before DIRKAR
 DYNMAT: After DIRKAR
      -3.829534727536489       8.883536758605027       1.456438550647951
 DYNMAT: Loop at J=         109
 DYNMAT: Before DIRKAR
 DYNMAT: After DIRKAR
       0.059506448200731      11.106076955638493       4.651828090415639
 DYNMAT: Loop at J=         110
 DYNMAT: Before DIRKAR
 DYNMAT: After DIRKAR
       0.129417506615527       6.528692045851874       8.409742789863824
 DYNMAT: Loop at J=         111
 DYNMAT: Before DIRKAR
 DYNMAT: After DIRKAR
       0.042683561852750       8.882716127933271       1.463136756448605
 DYNMAT: Loop at J=         112
 DYNMAT: Before DIRKAR
 DYNMAT: After DIRKAR
      -3.829896945732058      11.117085470156441       4.675883300545520
 DYNMAT: Loop at J=         113
 DYNMAT: Before DIRKAR
 DYNMAT: After DIRKAR
      11.580746262155813       6.635551719154977       8.010933321833527
 DYNMAT: Loop at J=         114
 DYNMAT: Before DIRKAR
 DYNMAT: After DIRKAR
      -1.882735726721149      12.233704651666400       1.475206164053971
 DYNMAT: Loop at J=         115
 DYNMAT: Before DIRKAR
 DYNMAT: After DIRKAR
      -1.898556836220441       7.753980601932565       4.668997016743205
 DYNMAT: Loop at J=         116
 DYNMAT: Before DIRKAR
 DYNMAT: After DIRKAR
       9.761989645148386       9.961398153442598       7.980219976912694
 DYNMAT: Loop at J=         117
 DYNMAT: Before DIRKAR
 DYNMAT: After DIRKAR
      -5.777558879219629      12.248304097520858       1.468726958865599
 DYNMAT: Loop at J=         118
 DYNMAT: Before DIRKAR
 DYNMAT: After DIRKAR
       1.979516844400096       7.760490305080748       4.573622181101669
 DYNMAT: Loop at J=         119
 DYNMAT: Before DIRKAR
 DYNMAT: After DIRKAR
      -1.855276620971094      10.135727649700918       8.019803003254967
 DYNMAT: Loop at J=         120
 DYNMAT: Before DIRKAR
 DYNMAT: After DIRKAR
       3.951378983065543      11.133726465456295      22.785992206913484
 DYNMAT: Loop at J=         121
 DYNMAT: Before DIRKAR
 DYNMAT: After DIRKAR
       3.956777522826543       6.645949339841972       3.036735492701759
 DYNMAT: Loop at J=         122
 DYNMAT: Before DIRKAR
 DYNMAT: After DIRKAR
       7.833986459043033       8.866401425184263       6.310925282951625
 DYNMAT: Loop at J=         123
 DYNMAT: Before DIRKAR
 DYNMAT: After DIRKAR
       7.804536993415555      11.131230171177910      22.768992936909981
 DYNMAT: Loop at J=         124
 DYNMAT: Before DIRKAR
 DYNMAT: After DIRKAR
       7.841994963054029       6.641404388365875       3.028304730097529
 DYNMAT: Loop at J=         125
 DYNMAT: Before DIRKAR
 DYNMAT: After DIRKAR
       4.006505912344306       8.707670496292186       6.332565875239138
 DYNMAT: Loop at J=         126
 DYNMAT: Before DIRKAR
 DYNMAT: After DIRKAR
       9.755640662300101       7.744905161214152      22.767151061125379
 DYNMAT: Loop at J=         127
 DYNMAT: Before DIRKAR
 DYNMAT: After DIRKAR
       5.891331451495108       9.986928408390538       3.029583733337591
 DYNMAT: Loop at J=         128
 DYNMAT: Before DIRKAR
 DYNMAT: After DIRKAR
       1.974384654258471      12.199286753118010       6.263939932854098
 DYNMAT: Loop at J=         129
 DYNMAT: Before DIRKAR
 DYNMAT: After DIRKAR
       5.879317658857866       7.738430924382646      22.783873761685626
 DYNMAT: Loop at J=         130
 DYNMAT: Before DIRKAR
 DYNMAT: After DIRKAR
       1.993917360811391      10.004044092552768       3.022900195953452
 DYNMAT: Loop at J=         131
 DYNMAT: Before DIRKAR
 DYNMAT: After DIRKAR
       5.939751644395742      12.167646816297676       6.302714017824114
 DYNMAT: Loop at J=         132
 DYNMAT: Before DIRKAR
 DYNMAT: After DIRKAR
       3.934895716805406       8.883404697569604       1.463876241826824
 DYNMAT: Loop at J=         133
 DYNMAT: Before DIRKAR
 DYNMAT: After DIRKAR
       7.832497592664610      11.087021084213152       4.687610006183542
 DYNMAT: Loop at J=         134
 DYNMAT: Before DIRKAR
 DYNMAT: After DIRKAR
       7.605323207174530       6.697152562403480       8.373058633118783
 DYNMAT: Loop at J=         135
 DYNMAT: Before DIRKAR
 DYNMAT: After DIRKAR
       7.826022634175511       8.888754598148678       1.458826572640829
 DYNMAT: Loop at J=         136
 DYNMAT: Before DIRKAR
 DYNMAT: After DIRKAR
       3.951069586701439      11.060538533729629       4.670790393075751
 DYNMAT: Loop at J=         137
 DYNMAT: Before DIRKAR
 DYNMAT: After DIRKAR
       5.878241859407328      12.243977175185957       1.516142364318435
 DYNMAT: Loop at J=         138
 DYNMAT: Before DIRKAR
 DYNMAT: After DIRKAR
       5.941253565292895       7.753464890889607       4.626425993398887
 DYNMAT: Loop at J=         139
 DYNMAT: Before DIRKAR
 DYNMAT: After DIRKAR
       9.767625898643610       7.799995819579921       4.690917378990699
 DYNMAT: Loop at J=         140
 DYNMAT: Before DIRKAR
 DYNMAT: After DIRKAR
       1.997633794119809      12.242737208669936       1.482136690752026
 DYNMAT: Loop at J=         141
 DYNMAT: Before DIRKAR
 DYNMAT: After DIRKAR
       5.931777410406164       9.858787715905814       8.285856477776454
 DYNMAT: Loop at J=         142
 DYNMAT: Before DIRKAR
 DYNMAT: After DIRKAR
       1.952936791243425      10.015892438504961       8.257344646541258
 DYNMAT: Loop at J=         143
 DYNMAT: Before DIRKAR
 DYNMAT: After DIRKAR
       2.789660612030735       9.076070061669066       9.566528676284818
 DYNMAT: Loop at J=         144
 DYNMAT: Before DIRKAR
 DYNMAT: After DIRKAR
       5.128651351397460       8.873325731390027       9.640923032786931
 DYNMAT: Loop at J=         145
 DYNMAT: Before DIRKAR
 DYNMAT: After DIRKAR
       2.479516502751956       7.986220092774762      11.516755025583327
 DYNMAT: Loop at J=         146
 DYNMAT: Before DIRKAR
 DYNMAT: After DIRKAR
       3.651499313692786       6.842924132924737       9.563584297274463
 DYNMAT: Loop at J=         147
 DYNMAT: Before DIRKAR
 DYNMAT: After DIRKAR
       6.220295981868260       6.602562067369325       9.593298564233502
 DYNMAT: Loop at J=         148
 DYNMAT: Before DIRKAR
 DYNMAT: After DIRKAR
       4.714077760054342       4.996787579826401      10.488342653684334
 DYNMAT: Loop at J=         149
 DYNMAT: Before DIRKAR
 DYNMAT: After DIRKAR
       4.816153136874944       7.288574944228504      11.464346439245213
 DYNMAT: Loop at J=         150
 DYNMAT: Before DIRKAR
 DYNMAT: After DIRKAR
       1.286461030434628       6.540380973178499       9.835786888544929
 DYNMAT: Loop at J=         151
 DYNMAT: Before DIRKAR
 DYNMAT: After DIRKAR
       2.781753775108064       5.692785607362269      11.647079265249680
 DYNMAT: Loop at J=         152
 DYNMAT: Before DIRKAR
 DYNMAT: After DIRKAR
       2.491913404260230       4.463420799259276       9.670788592067774
 DYNMAT: Loop at J=         153
 DYNMAT: Before DIRKAR
 DYNMAT: After DIRKAR
       1.143040800487568      11.926060079364547      11.505749739387644
 DYNMAT: Loop at J=         154
 DYNMAT: Before DIRKAR
 DYNMAT: After DIRKAR
       0.324143156455557      11.211347918950441      11.421572748543440
 DYNMAT: Loop at J=         155
 DYNMAT: Before DIRKAR
 DYNMAT: After DIRKAR
       2.048442336078076      11.410815430849365      11.831231994832441
 DYNMAT: Loop at J=         156
 DYNMAT: Before DIRKAR
 DYNMAT: After DIRKAR
       0.884317010023000      12.691062921736680      12.237736331009176
 DYNMAT: Loop at J=         157
 DYNMAT: Before DIRKAR
 DYNMAT: After DIRKAR
       1.315520410634607      12.389250855862700      10.535202010103129
 HIPREC TOTAL-FORCE (eV/A)
      -0.002117708387753       0.000181753487428      -0.002014118909435
       0.003105345714770      -0.013181271436624      -0.009108907021608
       0.007250848467399       0.009403420295651      -0.005632253859127
      -0.000648174986530       0.001951025376065      -0.001202013038959
      -0.018699528724455       0.021431046200444       0.002174287565129
      -0.006251159834229      -0.011531578291505      -0.037633723783802
      -0.001915112839437       0.002936473156540      -0.000798699995048
       0.002498401141776       0.006568305888930       0.003324995280355
       0.013341149328181       0.022282541811114       0.045760527013304
      -0.000529115398632      -0.002588090401586      -0.000643077005134
      -0.010555874204980       0.004811650735664      -0.000240231414433
       0.007958489413494      -0.014498448229979      -0.053620686164977
      -0.000518894702267      -0.002681079256861       0.000345364070462
       0.000728010919548       0.003146471940981       0.001905944129686
       0.016837661487194      -0.012062261979944      -0.041357060119854
       0.000283489084039      -0.001118881917759      -0.002678662944024
       0.005781443423958       0.000990641391183       0.002425191383868
       0.004214733746498       0.008180322120680       0.001240263566860
       0.001673288858105       0.000127183593276      -0.001288918757912
       0.009886922515577       0.011920298570074      -0.021200899179967
      -0.000564172364384      -0.009688031452792       0.001497762960860
      -0.001041226367762      -0.000692278871802      -0.000606321893684
       0.004305326387504      -0.003843108655310       0.001491874161329
      -0.003558598712257       0.002260541565870      -0.001691838473020
       0.001536158175805      -0.001262298130147       0.002381232783921
       0.011813647036703      -0.010718378504804       0.031108397843808
       0.007220295182504       0.000753404295741       0.003184057140036
       0.000047260010753      -0.001182168060191       0.000446141838544
       0.001047695076823      -0.010780303430392      -0.002624494240592
       0.003927285113302       0.007332009329134      -0.008648852531231
       0.002720163098409      -0.002344286812363       0.001428527341072
      -0.002863591621861      -0.009887932974087      -0.002792185939551
       0.042730264870560      -0.031355966189319       0.038262270426885
       0.000020119396642       0.000982826491636       0.003743719864452
       0.004617102769192      -0.002297902311719       0.000276465032296
      -0.002039879210640      -0.029219970158971      -0.005435703240764
      -0.001346019474918       0.000275381808146       0.000520195711081
       0.001849446024824       0.001807132259349       0.003736578283876
      -0.038334003839679       0.033733500521171      -0.042049170153075
      -0.002697141555581      -0.002709407475571       0.003781574915450
       0.003247401683513       0.000375139407659       0.004198833433133
      -0.009518381889990       0.025753641616735      -0.008870949358556
      -0.000005303780755       0.000164425749909       0.001891777878891
      -0.004114926118619      -0.005045391503557      -0.007800346833017
       0.002010755717543       0.006371829292448      -0.005564623339179
       0.002190180528565       0.001068598169878      -0.000636876673926
      -0.016394186059553      -0.008545569206038       0.009910881528409
       0.000636011596375       0.011582053804491       0.002927536958854
       0.001014117931815      -0.016315231709364       0.001595782185334
       0.035738427318150      -0.058543890267605      -0.014601091321349
      -0.012538141648018       0.077412585698549      -0.011958334425406
      -0.009920468801468       0.000936434708370      -0.000081305488264
       0.001706575637297      -0.010376687136697      -0.004475698481260
       0.010412094043312       0.023869874859019      -0.016461851249352
      -0.008982664816143       0.009209337671989      -0.010232310587719
       0.001643916086303      -0.026781096442277      -0.020799890702210
       0.022208197306835       0.003143706653966       0.002404800312286
       0.009866482370133       0.019648292072039      -0.027727422755557
       0.024406863305871       0.034509483209657      -0.028146489825125
       0.055984586297346      -0.013905928174203      -0.017959078166403
[...]
      -0.004580812197156       0.001474695449256      -0.001562734570933
      -0.003659618641385       0.006085009435044      -0.006900736115357
      -0.004984724186916       0.002550759905903       0.002129268721630
      -0.003792440272499      -0.006713869094514       0.019599603632326
      -0.003282975428072       0.007226227837937      -0.002122939604238
      -0.006195413297609       0.001971980522062      -0.002636002301124
      -0.003730093039080      -0.000746896113269      -0.004142833574138
      -0.003527227724148       0.000685632316347       0.005879784794205
      -0.008998344874880      -0.006085169989496      -0.007440094363740
       0.009118159705627      -0.002592328530375      -0.000809527717081
       0.023183812397036       0.010208105589301       0.002990174393575
      -0.020400057770785      -0.011402051419789      -0.002521887452624
      -0.002172969991805       0.008983840402678       0.000467706243319
      -0.007720106269420       0.000101336808817       0.002351134143231
      -0.004704926386172       0.007034172525350       0.003410284876667
DYMAT: ------------------------------
DYMAT: DEGREE OF FREEDOM 153  1  1
DYMAT: ------------------------------
DYMAT: DEGREE OF FREEDOM 153  2  2
DYMAT: ------------------------------
DYMAT: DEGREE OF FREEDOM 153  3  3
DYMAT: ------------------------------
DYMAT: DEGREE OF FREEDOM 154  1  4
DYMAT: ------------------------------
DYMAT: DEGREE OF FREEDOM 154  2  5
DYMAT: ------------------------------
DYMAT: DEGREE OF FREEDOM 154  3  6
DYMAT: ------------------------------
DYMAT: DEGREE OF FREEDOM 155  1  7
DYMAT: ------------------------------
DYMAT: DEGREE OF FREEDOM 155  2  8
DYMAT: ------------------------------
DYMAT: DEGREE OF FREEDOM 155  3  9
DYMAT: ------------------------------
DYMAT: DEGREE OF FREEDOM 156  1 10
DYMAT: ------------------------------
DYMAT: DEGREE OF FREEDOM 156  2 11
DYMAT: ------------------------------
DYMAT: DEGREE OF FREEDOM 156  3 12
DYMAT: ------------------------------
DYMAT: DEGREE OF FREEDOM 157  1 13
DYMAT: ------------------------------
DYMAT: DEGREE OF FREEDOM 157  2 14
DYMAT: ------------------------------
DYMAT: DEGREE OF FREEDOM 157  3 15
DYMAT: LEAVING
 stress matrix after NEB project (eV)
    -41.64857      0.04257     -0.89268
      0.04257    -42.09967      0.68567
     -0.89268      0.68567     -5.29126
  FORCES: max atom, RMS     0.091593    0.031636
  FORCE total and by dimension    0.396403    0.077413
  Stress total and by dimension   59.477062   42.099670

 reached required accuracy - stopping structural energy minimisation